2419.36
0 1 3 4 11 73 7 5 0
0 25 16 19 24 15 17 31 29 46 90 6 13 76 0
0 33 27 34 23 30 22 18 26 20 21 32 50 39 12 35 0
0 37 28 41 42 38 40 9 72 0
0 54 63 45 44 48 43 49 47 86 94 0
0 55 60 57 56 59 61 62 58 64 83 66 52 84 67 68 0
0 77 81 82 79 78 65 97 89 71 74 10 69 0
0 80 95 92 2 70 75 0
0 53 36 87 85 88 91 14 0
0 96 93 51 99 0
0 8 98 100 0
